Maximize
  r
Subject To
 R0: r + 22 w0 + 70 w1 + 124 w2 - w3 + 1200 w4 + 15 w5 <= 0
 R1: r - 39 w0 - 50 w1 - 46 w2 + w3 - 8310 w4 - 27 w5 <= 0
 R2: r + 12 w0 + 70 w1 + 234 w2 + 1290 w4 <= 0
 R3: r + 2 w0 + 70 w1 + 272 w2 + w3 - 14110 w4 - 6 w5 <= 0
 R4: r + 52 w0 + 110 w1 + 141 w2 - 3 w3 + 8040 w4 + 35 w5 <= 0
 R5: r + 10 w0 + 80 w1 + 106 w2 + 1890 w4 + w5 <= 0
 R6: r + 40 w1 + 109 w2 + 1340 w4 + 4 w5 <= 0
 R7: r - 39 w0 + 64 w2 - 5605 w4 - 16 w5 <= 0
 R8: r + 42 w0 + 100 w1 + 166 w2 - 2 w3 + 7490 w4 <= 0
 R9: r - 15 w0 + 40 w1 + 51 w2 + 590 w4 - 35 w5 <= 0
 R10: r - 16 w0 + 20 w1 + 109 w2 + 590 w4 + 14 w5 <= 0
 R11: r - 16 w0 + 20 w1 + 109 w2 - 2810 w4 + 14 w5 <= 0
 R12: r + 72 w0 + 130 w1 + 179 w2 - 3 w3 + 4020 w4 + 19 w5 <= 0
 R13: r - 8 w0 + 80 w1 + 65 w2 + 540 w4 + 6 w5 <= 0
 R14: r - 28 w0 + 40 w1 + 65 w2 - 2510 w4 + 4 w5 <= 0
 R15: r + 82 w0 + 145 w1 + 242 w2 - 3 w3 + 8225 w4 + 20 w5 <= 0
 R16: r + 3700 w4 <= 0
 R17: r + 56 w0 + 160 w1 + 229 w2 - 2 w3 + 10710 w4 - 8 w5 <= 0
 R18: r + 42 w0 + 70 w1 + 57 w2 - w3 + 3250 w4 + 29 w5 <= 0
 R19: 95 w0 + 160 w1 + 165 w2 - 2 w3 + 16315 w4 + 8 w5 >= 0
 R20: 50 w1 + 110 w2 - w3 + 2705 w4 + 11 w5 >= 0
 sum_wi_=_1: w0 + w1 + w2 + w3 + w4 + w5 = 1
Bounds
 w0 <= 1
 w1 <= 1
 w2 <= 1
 w3 <= 1
 w4 <= 1
 w5 <= 1
End
